RLW04
Position Depot: Center
Horizon for Depot: Large
Position of customers: Random
Distribution of the demand: Small
Width of time windows: Wide
Distribution of the service: Large

VEHICLE 
NUMBER 	 CAPACITY 
 5 	 	 127 
 
CUSTOMER
CUST NO. 	 XCOORD.  	 YCOORD. 	 DEMAND 	 READY TIME 	 DUE DATE 	 SERVICE TIME 
 0 	 	 500 	 	 500 	 	 0 	 	 0 	 	 3104 	 	 0 
  1 	 	 874 	 	 928 	 	 7 	 	 1810 	 	 2032 	 	 174 
  2 	 	 513 	 	 66 	 	 9 	 	 1499 	 	 1746 	 	 151 
  3 	 	 815 	 	 524 	 	 9 	 	 2469 	 	 2823 	 	 150 
  4 	 	 274 	 	 927 	 	 7 	 	 1814 	 	 2039 	 	 170 
  5 	 	 970 	 	 931 	 	 8 	 	 283 	 	 701 	 	 138 
  6 	 	 602 	 	 766 	 	 7 	 	 369 	 	 853 	 	 135 
  7 	 	 67 	 	 885 	 	 9 	 	 1272 	 	 1684 	 	 150 
  8 	 	 532 	 	 809 	 	 5 	 	 2108 	 	 2605 	 	 114 
  9 	 	 37 	 	 587 	 	 9 	 	 267 	 	 518 	 	 142 
  10 	 	 344 	 	 955 	 	 7 	 	 2622 	 	 3104 	 	 104 
  11 	 	 652 	 	 379 	 	 9 	 	 79 	 	 527 	 	 181 
  12 	 	 85 	 	 867 	 	 9 	 	 1641 	 	 2012 	 	 164 
  13 	 	 941 	 	 829 	 	 9 	 	 323 	 	 605 	 	 141 
  14 	 	 369 	 	 219 	 	 6 	 	 2238 	 	 2513 	 	 175 
  15 	 	 110 	 	 413 	 	 7 	 	 1875 	 	 2290 	 	 146 
  16 	 	 349 	 	 872 	 	 7 	 	 2299 	 	 2687 	 	 104 
  17 	 	 728 	 	 64 	 	 10 	 	 842 	 	 1177 	 	 196 
  18 	 	 992 	 	 406 	 	 9 	 	 915 	 	 1408 	 	 200 
  19 	 	 633 	 	 85 	 	 5 	 	 2758 	 	 3045 	 	 134 
  20 	 	 423 	 	 85 	 	 6 	 	 915 	 	 1397 	 	 192 
  21 	 	 656 	 	 269 	 	 6 	 	 737 	 	 987 	 	 135 
  22 	 	 739 	 	 491 	 	 5 	 	 2642 	 	 3104 	 	 138 
  23 	 	 806 	 	 894 	 	 6 	 	 2107 	 	 2345 	 	 170 
  24 	 	 323 	 	 347 	 	 7 	 	 1980 	 	 2248 	 	 104 
  25 	 	 452 	 	 833 	 	 7 	 	 2885 	 	 3104 	 	 103 
  26 	 	 323 	 	 427 	 	 10 	 	 427 	 	 912 	 	 105 
  27 	 	 723 	 	 602 	 	 10 	 	 2483 	 	 2952 	 	 154 
  28 	 	 188 	 	 996 	 	 6 	 	 824 	 	 1082 	 	 175 
  29 	 	 133 	 	 997 	 	 9 	 	 1942 	 	 2204 	 	 192 
  30 	 	 272 	 	 469 	 	 6 	 	 34 	 	 418 	 	 158 
  31 	 	 342 	 	 949 	 	 9 	 	 2723 	 	 3104 	 	 128 
  32 	 	 947 	 	 954 	 	 10 	 	 493 	 	 700 	 	 162 
  33 	 	 33 	 	 168 	 	 7 	 	 2150 	 	 2370 	 	 101 
  34 	 	 235 	 	 783 	 	 5 	 	 2003 	 	 2291 	 	 104 
  35 	 	 968 	 	 540 	 	 6 	 	 644 	 	 1070 	 	 136 
  36 	 	 248 	 	 502 	 	 9 	 	 1338 	 	 1704 	 	 150 
  37 	 	 967 	 	 669 	 	 5 	 	 653 	 	 945 	 	 124 
  38 	 	 700 	 	 638 	 	 7 	 	 2171 	 	 2589 	 	 178 
  39 	 	 485 	 	 372 	 	 5 	 	 1891 	 	 2101 	 	 113 
  40 	 	 674 	 	 640 	 	 9 	 	 2510 	 	 2931 	 	 190 
  41 	 	 596 	 	 351 	 	 7 	 	 95 	 	 510 	 	 124 
  42 	 	 718 	 	 526 	 	 8 	 	 2246 	 	 2734 	 	 184 
  43 	 	 563 	 	 962 	 	 9 	 	 1709 	 	 2203 	 	 198 
  44 	 	 460 	 	 618 	 	 8 	 	 508 	 	 845 	 	 186 
  45 	 	 839 	 	 537 	 	 7 	 	 2106 	 	 2508 	 	 177 
  46 	 	 552 	 	 265 	 	 7 	 	 1166 	 	 1373 	 	 177 
  47 	 	 775 	 	 46 	 	 8 	 	 1683 	 	 2065 	 	 129 
  48 	 	 520 	 	 454 	 	 6 	 	 2643 	 	 3086 	 	 142 
  49 	 	 712 	 	 640 	 	 6 	 	 1360 	 	 1783 	 	 106 
  50 	 	 657 	 	 113 	 	 7 	 	 129 	 	 459 	 	 196 
  51 	 	 554 	 	 759 	 	 5 	 	 1058 	 	 1451 	 	 101 
  52 	 	 332 	 	 346 	 	 7 	 	 2300 	 	 2525 	 	 126 
  53 	 	 733 	 	 83 	 	 7 	 	 374 	 	 607 	 	 116 
  54 	 	 799 	 	 707 	 	 7 	 	 1490 	 	 1864 	 	 129 
  55 	 	 27 	 	 985 	 	 10 	 	 2722 	 	 3015 	 	 196 
  56 	 	 784 	 	 774 	 	 9 	 	 2611 	 	 3104 	 	 182 
  57 	 	 374 	 	 309 	 	 7 	 	 1340 	 	 1755 	 	 167 
  58 	 	 996 	 	 472 	 	 5 	 	 611 	 	 1019 	 	 129 
  59 	 	 622 	 	 43 	 	 9 	 	 829 	 	 1143 	 	 131 
  60 	 	 730 	 	 404 	 	 8 	 	 721 	 	 998 	 	 192 
  61 	 	 306 	 	 761 	 	 10 	 	 1374 	 	 1574 	 	 191 
  62 	 	 721 	 	 703 	 	 7 	 	 1592 	 	 2046 	 	 121 
  63 	 	 691 	 	 149 	 	 5 	 	 1306 	 	 1729 	 	 170 
  64 	 	 350 	 	 895 	 	 9 	 	 1824 	 	 2186 	 	 177 
  65 	 	 114 	 	 597 	 	 10 	 	 957 	 	 1437 	 	 184 
  66 	 	 282 	 	 439 	 	 5 	 	 1150 	 	 1394 	 	 181 
  67 	 	 503 	 	 117 	 	 9 	 	 735 	 	 1070 	 	 155 
  68 	 	 381 	 	 803 	 	 6 	 	 106 	 	 358 	 	 176 
  69 	 	 527 	 	 526 	 	 9 	 	 534 	 	 800 	 	 137 
  70 	 	 944 	 	 49 	 	 5 	 	 792 	 	 993 	 	 186 
  71 	 	 63 	 	 433 	 	 10 	 	 2826 	 	 3036 	 	 108 
  72 	 	 56 	 	 9 	 	 5 	 	 2016 	 	 2389 	 	 142 
  73 	 	 803 	 	 19 	 	 9 	 	 139 	 	 625 	 	 127 
  74 	 	 480 	 	 204 	 	 7 	 	 960 	 	 1457 	 	 170 
  75 	 	 534 	 	 257 	 	 6 	 	 594 	 	 901 	 	 150 
  76 	 	 908 	 	 61 	 	 6 	 	 2058 	 	 2489 	 	 104 
  77 	 	 339 	 	 334 	 	 8 	 	 386 	 	 594 	 	 172 
  78 	 	 189 	 	 517 	 	 10 	 	 236 	 	 530 	 	 127 
  79 	 	 230 	 	 180 	 	 7 	 	 285 	 	 515 	 	 140 
  80 	 	 899 	 	 743 	 	 6 	 	 87 	 	 513 	 	 119 
  81 	 	 236 	 	 44 	 	 10 	 	 984 	 	 1360 	 	 107 
  82 	 	 603 	 	 91 	 	 8 	 	 662 	 	 978 	 	 185 
  83 	 	 189 	 	 122 	 	 5 	 	 714 	 	 941 	 	 195 
  84 	 	 745 	 	 118 	 	 5 	 	 2792 	 	 3104 	 	 136 
  85 	 	 731 	 	 258 	 	 9 	 	 1567 	 	 1894 	 	 192 
  86 	 	 33 	 	 741 	 	 7 	 	 614 	 	 980 	 	 144 
  87 	 	 365 	 	 465 	 	 10 	 	 2323 	 	 2718 	 	 186 
  88 	 	 395 	 	 91 	 	 8 	 	 776 	 	 1226 	 	 143 
  89 	 	 932 	 	 182 	 	 9 	 	 2529 	 	 2787 	 	 130 
  90 	 	 74 	 	 791 	 	 8 	 	 898 	 	 1370 	 	 138 
  91 	 	 942 	 	 994 	 	 7 	 	 2715 	 	 3104 	 	 152 
  92 	 	 467 	 	 373 	 	 7 	 	 1092 	 	 1494 	 	 160 
  93 	 	 523 	 	 17 	 	 7 	 	 344 	 	 698 	 	 121 
  94 	 	 309 	 	 580 	 	 6 	 	 2108 	 	 2384 	 	 121 
  95 	 	 468 	 	 660 	 	 10 	 	 488 	 	 757 	 	 120 
  96 	 	 81 	 	 832 	 	 9 	 	 879 	 	 1199 	 	 145 
  97 	 	 660 	 	 322 	 	 6 	 	 914 	 	 1356 	 	 139 
  98 	 	 79 	 	 438 	 	 6 	 	 2062 	 	 2442 	 	 157 
  99 	 	 938 	 	 110 	 	 6 	 	 2622 	 	 2983 	 	 108 
  100 	 	 701 	 	 191 	 	 8 	 	 2080 	 	 2297 	 	 105 
 